Running HiGHS 1.8.1 (git hash: 4a7f24a): Copyright (c) 2024 HiGHS under MIT licence terms
Reading model file  67Vertices.lp  returns a status of  HighsStatus.kOk
Coefficient ranges:
  Matrix [1e-03, 1e+03]
  Cost   [1e+00, 1e+00]
  Bound  [1e+00, 2e+09]
  RHS    [1e+00, 1e+03]
Presolving model
1025 rows, 1199 cols, 4560 nonzeros  0s
829 rows, 906 cols, 4444 nonzeros  0s
479 rows, 447 cols, 2233 nonzeros  0s
416 rows, 380 cols, 1697 nonzeros  0s

Solving MIP model with:
   416 rows
   380 cols (48 binary, 0 integer, 6 implied int., 326 continuous)
   1697 nonzeros
MIP-Timing:        0.02 - starting analytic centre calculation

Src: B => Branching; C => Central rounding; F => Feasibility pump; H => Heuristic; L => Sub-MIP;
     P => Empty MIP; R => Randomized rounding; S => Solve LP; T => Evaluate node; U => Unbounded;
     z => Trivial zero; l => Trivial lower; u => Trivial upper; p => Trivial point

        Nodes      |    B&B Tree     |            Objective Bounds              |  Dynamic Constraints |       Work      
Src  Proc. InQueue |  Leaves   Expl. | BestBound       BestSol              Gap |   Cuts   InLp Confl. | LpIters     Time

         0       0         0   0.00%   -0.858054243    inf                  inf        0      0      0         0     0.0s
         0       0         0   0.00%   -0.2656086957   inf                  inf        0      0      2       454     0.0s

2.1% inactive integer columns, restarting
Model after restart has 405 rows, 372 cols (47 bin., 0 int., 4 impl., 321 cont.), and 1657 nonzeros

MIP-Timing:        0.53 - starting analytic centre calculation
         0       0         0   0.00%   -0.2228425269   inf                  inf       53      0      0      3840     0.5s
         0       0         0   0.00%   -0.2228425269   inf                  inf       53     49      4      4217     0.5s

Symmetry detection completed in 0.0s
No symmetry present

 B      68       6        25  45.94%   -0.2220281781   -0.080640448     175.33%      154     53    415     23216     2.2s
 T     350       3       143  99.76%   -0.1318248927   -0.1164967345     13.16%      842     80   1231     36176     3.4s
 T     358       3       147  99.77%   -0.1318248927   -0.1164967345     13.16%      845     80   1238     36273     3.4s
 T     360       1       149  99.80%   -0.1208569853   -0.1164967345      3.74%      847     80   1243     36297     3.4s
       362       0       151 100.00%   -0.1164967345   -0.1164967345      0.00%      820     88   1244     36355     3.4s

Solving report
  Model             67Vertices
  Status            Optimal
  Primal bound      -0.1164967345
  Dual bound        -0.1164967345
  Gap               0% (tolerance: 0.01%)
  P-D integral      1.80975839289
  Solution status   feasible
                    -0.1164967345 (objective)
                    0 (bound viol.)
                    0 (int. viol.)
                    0 (row viol.)
  Timing            3.43 (total)
                    0.00 (presolve)
                    0.00 (solve)
                    0.00 (postsolve)
  Max sub-MIP depth 3
  Nodes             362
  Repair LPs        0 (0 feasible; 0 iterations)
  LP iterations     36355 (total)
                    16150 (strong br.)
                    1753 (separation)
                    8536 (heuristics)
Model status =  Optimal

Optimal objective =  -0.11649673449999472
Iteration count =  36355
Primal solution status =  Feasible
Dual solution status =  None
Basis validity =  Not valid
Writing the solution to ./67Vertices.sol

